NAME metamorphosis_srl_ilp
* Max problem is converted into Min one
ROWS
 N  OBJ
 L  constraint1_6542
 L  constraint1_6541
 L  constraint1_6543
 L  constraint1_6544
 L  constraint1_6540
 L  constraint1_830
 L  constraint1_831
 L  constraint1_6702
 L  constraint1_6703
 L  constraint1_6704
 L  constraint1_6700
 L  constraint1_6701
 L  constraint1_6010
 L  constraint1_5620
 L  constraint1_3900
 L  constraint1_3110
 L  constraint1_3111
 L  constraint1_3114
 L  constraint1_3113
 L  constraint1_3112
 L  constraint1_3070
 L  constraint1_1550
 L  constraint2_980
 L  constraint2_981
 L  constraint2_982
 L  constraint2_983
 L  constraint2_7390
 L  constraint2_7391
 L  constraint2_7392
 L  constraint2_7393
 L  constraint2_1380
 L  constraint2_1381
 L  constraint2_1382
 L  constraint2_1383
 L  constraint2_2340
 L  constraint2_2341
 L  constraint2_2342
 L  constraint2_2343
 L  constraint2_6540
 L  constraint2_6541
 L  constraint2_6542
 L  constraint2_6543
 L  constraint2_1360
 L  constraint2_1361
 L  constraint2_1362
 L  constraint2_1363
 L  constraint2_830
 L  constraint2_831
 L  constraint2_832
 L  constraint2_833
 L  constraint2_6700
 L  constraint2_6701
 L  constraint2_6702
 L  constraint2_6703
 L  constraint2_6010
 L  constraint2_6011
 L  constraint2_6012
 L  constraint2_6013
 L  constraint2_4700
 L  constraint2_4701
 L  constraint2_4702
 L  constraint2_4703
 L  constraint2_1700
 L  constraint2_1701
 L  constraint2_1702
 L  constraint2_1703
 L  constraint2_5620
 L  constraint2_5621
 L  constraint2_5622
 L  constraint2_5623
 L  constraint2_3900
 L  constraint2_3901
 L  constraint2_3902
 L  constraint2_3903
 L  constraint2_3110
 L  constraint2_3111
 L  constraint2_3112
 L  constraint2_3113
 L  constraint2_400
 L  constraint2_401
 L  constraint2_402
 L  constraint2_403
 L  constraint2_3070
 L  constraint2_3071
 L  constraint2_3072
 L  constraint2_3073
 L  constraint2_7530
 L  constraint2_7531
 L  constraint2_7532
 L  constraint2_7533
 L  constraint2_1550
 L  constraint2_1551
 L  constraint2_1552
 L  constraint2_1553
COLUMNS
    MARKER    'MARKER'                 'INTORG'
    Z_654_2_0  OBJ       -1.1696559925434991e-03
    Z_654_2_0  constraint1_6542  1
    Z_654_2_0  constraint2_6540  1
    Z_654_2_1  OBJ       -6.9642405250833848e-03
    Z_654_2_1  constraint1_6542  1
    Z_654_2_1  constraint2_6541  1
    Z_654_2_2  OBJ       -3.8798328594434710e-02
    Z_654_2_2  constraint1_6542  1
    Z_654_2_2  constraint2_6542  1
    Z_654_2_3  OBJ       -1.1210718640057984e-02
    Z_654_2_3  constraint1_6542  1
    Z_654_2_3  constraint2_6543  1
    Z_654_2_4  OBJ       -8.4185705624788032e-01
    Z_654_2_4  constraint1_6542  1
    Z_654_1_0  OBJ       -6.0139278390873895e-03
    Z_654_1_0  constraint1_6541  1
    Z_654_1_0  constraint2_6540  1
    Z_654_1_1  OBJ       -5.7618607708253826e-02
    Z_654_1_1  constraint1_6541  1
    Z_654_1_1  constraint2_6541  1
    Z_654_1_2  OBJ       -1.3724203697692819e-02
    Z_654_1_2  constraint1_6541  1
    Z_654_1_2  constraint2_6542  1
    Z_654_1_3  OBJ       -5.5654390539323908e-03
    Z_654_1_3  constraint1_6541  1
    Z_654_1_3  constraint2_6543  1
    Z_654_1_4  OBJ       -8.1707782170103360e-01
    Z_654_1_4  constraint1_6541  1
    Z_654_3_0  OBJ       -3.9237140790104458e-02
    Z_654_3_0  constraint1_6543  1
    Z_654_3_0  constraint2_6540  1
    Z_654_3_1  OBJ       -2.0511375093728715e-01
    Z_654_3_1  constraint1_6543  1
    Z_654_3_1  constraint2_6541  1
    Z_654_3_2  OBJ       -6.3637337294698074e-03
    Z_654_3_2  constraint1_6543  1
    Z_654_3_2  constraint2_6542  1
    Z_654_3_3  OBJ       -3.7012852532256092e-02
    Z_654_3_3  constraint1_6543  1
    Z_654_3_3  constraint2_6543  1
    Z_654_3_4  OBJ       -6.1227252201088245e-01
    Z_654_3_4  constraint1_6543  1
    Z_654_4_0  OBJ       -6.3793653219677430e-03
    Z_654_4_0  constraint1_6544  1
    Z_654_4_0  constraint2_6540  1
    Z_654_4_1  OBJ       -1.1109312520033603e-01
    Z_654_4_1  constraint1_6544  1
    Z_654_4_1  constraint2_6541  1
    Z_654_4_2  OBJ       -4.0659763368335825e-03
    Z_654_4_2  constraint1_6544  1
    Z_654_4_2  constraint2_6542  1
    Z_654_4_3  OBJ       -1.3647034611584829e-02
    Z_654_4_3  constraint1_6544  1
    Z_654_4_3  constraint2_6543  1
    Z_654_4_4  OBJ       -7.6481449852927785e-01
    Z_654_4_4  constraint1_6544  1
    Z_654_0_0  OBJ       -1.7823733524334807e-03
    Z_654_0_0  constraint1_6540  1
    Z_654_0_0  constraint2_6540  1
    Z_654_0_1  OBJ       -2.1738339396662849e-03
    Z_654_0_1  constraint1_6540  1
    Z_654_0_1  constraint2_6541  1
    Z_654_0_2  OBJ       -6.5702237802835722e-03
    Z_654_0_2  constraint1_6540  1
    Z_654_0_2  constraint2_6542  1
    Z_654_0_3  OBJ       -5.2300361159287202e-03
    Z_654_0_3  constraint1_6540  1
    Z_654_0_3  constraint2_6543  1
    Z_654_0_4  OBJ       -8.8424353281168788e-01
    Z_654_0_4  constraint1_6540  1
    Z_83_0_0  OBJ       -1.6001108550306599e-02
    Z_83_0_0  constraint1_830  1
    Z_83_0_0  constraint2_830  1
    Z_83_0_1  OBJ       -7.4229571456685458e-03
    Z_83_0_1  constraint1_830  1
    Z_83_0_1  constraint2_831  1
    Z_83_0_2  OBJ       -4.4896239101360758e-01
    Z_83_0_2  constraint1_830  1
    Z_83_0_2  constraint2_832  1
    Z_83_0_3  OBJ       -3.9920974766291485e-03
    Z_83_0_3  constraint1_830  1
    Z_83_0_3  constraint2_833  1
    Z_83_0_4  OBJ       -4.2362144581378808e-01
    Z_83_0_4  constraint1_830  1
    Z_83_1_0  OBJ       -8.7827825803339726e-02
    Z_83_1_0  constraint1_831  1
    Z_83_1_0  constraint2_830  1
    Z_83_1_1  OBJ       -8.3320900487984212e-02
    Z_83_1_1  constraint1_831  1
    Z_83_1_1  constraint2_831  1
    Z_83_1_2  OBJ       -1.2705144555714554e-02
    Z_83_1_2  constraint1_831  1
    Z_83_1_2  constraint2_832  1
    Z_83_1_3  OBJ       -8.1014231167270231e-02
    Z_83_1_3  constraint1_831  1
    Z_83_1_3  constraint2_833  1
    Z_83_1_4  OBJ       -6.3513189798569125e-01
    Z_83_1_4  constraint1_831  1
    Z_670_2_0  OBJ       -1.1691586149225777e-03
    Z_670_2_0  constraint1_6702  1
    Z_670_2_0  constraint2_6700  1
    Z_670_2_1  OBJ       -2.2847539946112477e-02
    Z_670_2_1  constraint1_6702  1
    Z_670_2_1  constraint2_6701  1
    Z_670_2_2  OBJ       -4.5657032188904283e-03
    Z_670_2_2  constraint1_6702  1
    Z_670_2_2  constraint2_6702  1
    Z_670_2_3  OBJ       -5.0564289094023562e-01
    Z_670_2_3  constraint1_6702  1
    Z_670_2_3  constraint2_6703  1
    Z_670_2_4  OBJ       -3.6577470727983891e-01
    Z_670_2_4  constraint1_6702  1
    Z_670_3_0  OBJ       -1.1691586149225777e-03
    Z_670_3_0  constraint1_6703  1
    Z_670_3_0  constraint2_6700  1
    Z_670_3_1  OBJ       -2.2847539946112477e-02
    Z_670_3_1  constraint1_6703  1
    Z_670_3_1  constraint2_6701  1
    Z_670_3_2  OBJ       -4.5657032188904283e-03
    Z_670_3_2  constraint1_6703  1
    Z_670_3_2  constraint2_6702  1
    Z_670_3_3  OBJ       -5.0564289094023562e-01
    Z_670_3_3  constraint1_6703  1
    Z_670_3_3  constraint2_6703  1
    Z_670_3_4  OBJ       -3.6577470727983891e-01
    Z_670_3_4  constraint1_6703  1
    Z_670_4_0  OBJ       -3.0561532849013490e-02
    Z_670_4_0  constraint1_6704  1
    Z_670_4_0  constraint2_6700  1
    Z_670_4_1  OBJ       -1.4972203132009433e-02
    Z_670_4_1  constraint1_6704  1
    Z_670_4_1  constraint2_6701  1
    Z_670_4_2  OBJ       -6.1907077906579195e-03
    Z_670_4_2  constraint1_6704  1
    Z_670_4_2  constraint2_6702  1
    Z_670_4_3  OBJ       -2.0207471320627607e-01
    Z_670_4_3  constraint1_6704  1
    Z_670_4_3  constraint2_6703  1
    Z_670_4_4  OBJ       -6.4620084302204317e-01
    Z_670_4_4  constraint1_6704  1
    Z_670_0_0  OBJ       -1.1758205266539017e-02
    Z_670_0_0  constraint1_6700  1
    Z_670_0_0  constraint2_6700  1
    Z_670_0_1  OBJ       -5.5867402282482638e-03
    Z_670_0_1  constraint1_6700  1
    Z_670_0_1  constraint2_6701  1
    Z_670_0_2  OBJ       -4.2388075142754640e-03
    Z_670_0_2  constraint1_6700  1
    Z_670_0_2  constraint2_6702  1
    Z_670_0_3  OBJ       -4.6115746101004752e-02
    Z_670_0_3  constraint1_6700  1
    Z_670_0_3  constraint2_6703  1
    Z_670_0_4  OBJ       -8.3230050088993246e-01
    Z_670_0_4  constraint1_6700  1
    Z_670_1_0  OBJ       -5.2119644484197036e-03
    Z_670_1_0  constraint1_6701  1
    Z_670_1_0  constraint2_6700  1
    Z_670_1_1  OBJ       -6.7484776496108401e-02
    Z_670_1_1  constraint1_6701  1
    Z_670_1_1  constraint2_6701  1
    Z_670_1_2  OBJ       -3.1159317383170908e-03
    Z_670_1_2  constraint1_6701  1
    Z_670_1_2  constraint2_6702  1
    Z_670_1_3  OBJ       -4.3418461320776264e-01
    Z_670_1_3  constraint1_6701  1
    Z_670_1_3  constraint2_6703  1
    Z_670_1_4  OBJ       -3.9000271410939252e-01
    Z_670_1_4  constraint1_6701  1
    Z_601_0_0  OBJ       -1.0110892065278934e-04
    Z_601_0_0  constraint1_6010  1
    Z_601_0_0  constraint2_6010  1
    Z_601_0_1  OBJ       -5.1328191400510084e-03
    Z_601_0_1  constraint1_6010  1
    Z_601_0_1  constraint2_6011  1
    Z_601_0_2  OBJ       -8.6174616605718546e-01
    Z_601_0_2  constraint1_6010  1
    Z_601_0_2  constraint2_6012  1
    Z_601_0_3  OBJ       -1.7802529302456246e-03
    Z_601_0_3  constraint1_6010  1
    Z_601_0_3  constraint2_6013  1
    Z_601_0_4  OBJ       -3.1239652951865208e-02
    Z_601_0_4  constraint1_6010  1
    Z_562_0_0  OBJ       -6.3726144562165901e-03
    Z_562_0_0  constraint1_5620  1
    Z_562_0_0  constraint2_5620  1
    Z_562_0_1  OBJ       -9.4445951741665785e-02
    Z_562_0_1  constraint1_5620  1
    Z_562_0_1  constraint2_5621  1
    Z_562_0_2  OBJ       -1.2627161315123207e-03
    Z_562_0_2  constraint1_5620  1
    Z_562_0_2  constraint2_5622  1
    Z_562_0_3  OBJ       -4.5547364897373083e-01
    Z_562_0_3  constraint1_5620  1
    Z_562_0_3  constraint2_5623  1
    Z_562_0_4  OBJ       -3.4244506869687447e-01
    Z_562_0_4  constraint1_5620  1
    Z_390_0_0  OBJ       -1.2181374936675220e-04
    Z_390_0_0  constraint1_3900  1
    Z_390_0_0  constraint2_3900  1
    Z_390_0_1  OBJ       -9.5429292802662158e-02
    Z_390_0_1  constraint1_3900  1
    Z_390_0_1  constraint2_3901  1
    Z_390_0_2  OBJ       -7.7481515908804999e-01
    Z_390_0_2  constraint1_3900  1
    Z_390_0_2  constraint2_3902  1
    Z_390_0_3  OBJ       -2.7157410788174840e-03
    Z_390_0_3  constraint1_3900  1
    Z_390_0_3  constraint2_3903  1
    Z_390_0_4  OBJ       -2.6917993281103648e-02
    Z_390_0_4  constraint1_3900  1
    Z_311_0_0  OBJ       -1.7474778169558958e-04
    Z_311_0_0  constraint1_3110  1
    Z_311_0_0  constraint2_3110  1
    Z_311_0_1  OBJ       -3.4353498006371063e-04
    Z_311_0_1  constraint1_3110  1
    Z_311_0_1  constraint2_3111  1
    Z_311_0_2  OBJ       -5.2393026713581431e-03
    Z_311_0_2  constraint1_3110  1
    Z_311_0_2  constraint2_3112  1
    Z_311_0_3  OBJ       -1.9543245357486534e-02
    Z_311_0_3  constraint1_3110  1
    Z_311_0_3  constraint2_3113  1
    Z_311_0_4  OBJ       -8.7469916920939617e-01
    Z_311_0_4  constraint1_3110  1
    Z_311_1_0  OBJ       -5.9995429373868835e-03
    Z_311_1_0  constraint1_3111  1
    Z_311_1_0  constraint2_3110  1
    Z_311_1_1  OBJ       -1.1528424281713915e-02
    Z_311_1_1  constraint1_3111  1
    Z_311_1_1  constraint2_3111  1
    Z_311_1_2  OBJ       -1.1652592171089542e-02
    Z_311_1_2  constraint1_3111  1
    Z_311_1_2  constraint2_3112  1
    Z_311_1_3  OBJ       -7.7339151767802747e-02
    Z_311_1_3  constraint1_3111  1
    Z_311_1_3  constraint2_3113  1
    Z_311_1_4  OBJ       -7.9348028884200705e-01
    Z_311_1_4  constraint1_3111  1
    Z_311_4_0  OBJ       -6.4388236931168952e-03
    Z_311_4_0  constraint1_3114  1
    Z_311_4_0  constraint2_3110  1
    Z_311_4_1  OBJ       -5.5592212548300650e-02
    Z_311_4_1  constraint1_3114  1
    Z_311_4_1  constraint2_3111  1
    Z_311_4_2  OBJ       -9.7579231034718194e-04
    Z_311_4_2  constraint1_3114  1
    Z_311_4_2  constraint2_3112  1
    Z_311_4_3  OBJ       -3.5910468758587699e-01
    Z_311_4_3  constraint1_3114  1
    Z_311_4_3  constraint2_3113  1
    Z_311_4_4  OBJ       -4.7788848386235822e-01
    Z_311_4_4  constraint1_3114  1
    Z_311_3_0  OBJ       -6.4388236931168952e-03
    Z_311_3_0  constraint1_3113  1
    Z_311_3_0  constraint2_3110  1
    Z_311_3_1  OBJ       -5.5592212548300650e-02
    Z_311_3_1  constraint1_3113  1
    Z_311_3_1  constraint2_3111  1
    Z_311_3_2  OBJ       -9.7579231034718194e-04
    Z_311_3_2  constraint1_3113  1
    Z_311_3_2  constraint2_3112  1
    Z_311_3_3  OBJ       -3.5910468758587699e-01
    Z_311_3_3  constraint1_3113  1
    Z_311_3_3  constraint2_3113  1
    Z_311_3_4  OBJ       -4.7788848386235822e-01
    Z_311_3_4  constraint1_3113  1
    Z_311_2_0  OBJ       -1.7355672961308834e-02
    Z_311_2_0  constraint1_3112  1
    Z_311_2_0  constraint2_3110  1
    Z_311_2_1  OBJ       -2.5608086806968869e-02
    Z_311_2_1  constraint1_3112  1
    Z_311_2_1  constraint2_3111  1
    Z_311_2_2  OBJ       -1.0440491435073018e-03
    Z_311_2_2  constraint1_3112  1
    Z_311_2_2  constraint2_3112  1
    Z_311_2_3  OBJ       -2.1227982313086566e-01
    Z_311_2_3  constraint1_3112  1
    Z_311_2_3  constraint2_3113  1
    Z_311_2_4  OBJ       -6.4371236795734932e-01
    Z_311_2_4  constraint1_3112  1
    Z_307_0_0  OBJ       -4.7264914809385366e-03
    Z_307_0_0  constraint1_3070  1
    Z_307_0_0  constraint2_3070  1
    Z_307_0_1  OBJ       -5.1138157228148101e-02
    Z_307_0_1  constraint1_3070  1
    Z_307_0_1  constraint2_3071  1
    Z_307_0_2  OBJ       -6.2266292909462697e-03
    Z_307_0_2  constraint1_3070  1
    Z_307_0_2  constraint2_3072  1
    Z_307_0_3  OBJ       -5.7837027831190058e-01
    Z_307_0_3  constraint1_3070  1
    Z_307_0_3  constraint2_3073  1
    Z_307_0_4  OBJ       -2.5953844368806650e-01
    Z_307_0_4  constraint1_3070  1
    Z_155_0_0  OBJ       -9.6418521670801130e-03
    Z_155_0_0  constraint1_1550  1
    Z_155_0_0  constraint2_1550  1
    Z_155_0_1  OBJ       -2.4773721920738512e-02
    Z_155_0_1  constraint1_1550  1
    Z_155_0_1  constraint2_1551  1
    Z_155_0_2  OBJ       -1.8036519853450728e-02
    Z_155_0_2  constraint1_1550  1
    Z_155_0_2  constraint2_1552  1
    Z_155_0_3  OBJ       -3.0551781002449535e-01
    Z_155_0_3  constraint1_1550  1
    Z_155_0_3  constraint2_1553  1
    Z_155_0_4  OBJ       -5.4203009603423535e-01
    Z_155_0_4  constraint1_1550  1
    MARKER    'MARKER'                 'INTEND'
RHS
    RHS1      constraint1_6542  1
    RHS1      constraint1_6541  1
    RHS1      constraint1_6543  1
    RHS1      constraint1_6544  1
    RHS1      constraint1_6540  1
    RHS1      constraint1_830  1
    RHS1      constraint1_831  1
    RHS1      constraint1_6702  1
    RHS1      constraint1_6703  1
    RHS1      constraint1_6704  1
    RHS1      constraint1_6700  1
    RHS1      constraint1_6701  1
    RHS1      constraint1_6010  1
    RHS1      constraint1_5620  1
    RHS1      constraint1_3900  1
    RHS1      constraint1_3110  1
    RHS1      constraint1_3111  1
    RHS1      constraint1_3114  1
    RHS1      constraint1_3113  1
    RHS1      constraint1_3112  1
    RHS1      constraint1_3070  1
    RHS1      constraint1_1550  1
    RHS1      constraint2_980  1
    RHS1      constraint2_981  1
    RHS1      constraint2_982  1
    RHS1      constraint2_983  1
    RHS1      constraint2_7390  1
    RHS1      constraint2_7391  1
    RHS1      constraint2_7392  1
    RHS1      constraint2_7393  1
    RHS1      constraint2_1380  1
    RHS1      constraint2_1381  1
    RHS1      constraint2_1382  1
    RHS1      constraint2_1383  1
    RHS1      constraint2_2340  1
    RHS1      constraint2_2341  1
    RHS1      constraint2_2342  1
    RHS1      constraint2_2343  1
    RHS1      constraint2_6540  1
    RHS1      constraint2_6541  1
    RHS1      constraint2_6542  1
    RHS1      constraint2_6543  1
    RHS1      constraint2_1360  1
    RHS1      constraint2_1361  1
    RHS1      constraint2_1362  1
    RHS1      constraint2_1363  1
    RHS1      constraint2_830  1
    RHS1      constraint2_831  1
    RHS1      constraint2_832  1
    RHS1      constraint2_833  1
    RHS1      constraint2_6700  1
    RHS1      constraint2_6701  1
    RHS1      constraint2_6702  1
    RHS1      constraint2_6703  1
    RHS1      constraint2_6010  1
    RHS1      constraint2_6011  1
    RHS1      constraint2_6012  1
    RHS1      constraint2_6013  1
    RHS1      constraint2_4700  1
    RHS1      constraint2_4701  1
    RHS1      constraint2_4702  1
    RHS1      constraint2_4703  1
    RHS1      constraint2_1700  1
    RHS1      constraint2_1701  1
    RHS1      constraint2_1702  1
    RHS1      constraint2_1703  1
    RHS1      constraint2_5620  1
    RHS1      constraint2_5621  1
    RHS1      constraint2_5622  1
    RHS1      constraint2_5623  1
    RHS1      constraint2_3900  1
    RHS1      constraint2_3901  1
    RHS1      constraint2_3902  1
    RHS1      constraint2_3903  1
    RHS1      constraint2_3110  1
    RHS1      constraint2_3111  1
    RHS1      constraint2_3112  1
    RHS1      constraint2_3113  1
    RHS1      constraint2_400  1
    RHS1      constraint2_401  1
    RHS1      constraint2_402  1
    RHS1      constraint2_403  1
    RHS1      constraint2_3070  1
    RHS1      constraint2_3071  1
    RHS1      constraint2_3072  1
    RHS1      constraint2_3073  1
    RHS1      constraint2_7530  1
    RHS1      constraint2_7531  1
    RHS1      constraint2_7532  1
    RHS1      constraint2_7533  1
    RHS1      constraint2_1550  1
    RHS1      constraint2_1551  1
    RHS1      constraint2_1552  1
    RHS1      constraint2_1553  1
BOUNDS
 UP BND1      Z_654_2_0  1
 UP BND1      Z_654_2_1  1
 UP BND1      Z_654_2_2  1
 UP BND1      Z_654_2_3  1
 UP BND1      Z_654_2_4  1
 UP BND1      Z_654_1_0  1
 UP BND1      Z_654_1_1  1
 UP BND1      Z_654_1_2  1
 UP BND1      Z_654_1_3  1
 UP BND1      Z_654_1_4  1
 UP BND1      Z_654_3_0  1
 UP BND1      Z_654_3_1  1
 UP BND1      Z_654_3_2  1
 UP BND1      Z_654_3_3  1
 UP BND1      Z_654_3_4  1
 UP BND1      Z_654_4_0  1
 UP BND1      Z_654_4_1  1
 UP BND1      Z_654_4_2  1
 UP BND1      Z_654_4_3  1
 UP BND1      Z_654_4_4  1
 UP BND1      Z_654_0_0  1
 UP BND1      Z_654_0_1  1
 UP BND1      Z_654_0_2  1
 UP BND1      Z_654_0_3  1
 UP BND1      Z_654_0_4  1
 UP BND1      Z_83_0_0  1
 UP BND1      Z_83_0_1  1
 UP BND1      Z_83_0_2  1
 UP BND1      Z_83_0_3  1
 UP BND1      Z_83_0_4  1
 UP BND1      Z_83_1_0  1
 UP BND1      Z_83_1_1  1
 UP BND1      Z_83_1_2  1
 UP BND1      Z_83_1_3  1
 UP BND1      Z_83_1_4  1
 UP BND1      Z_670_2_0  1
 UP BND1      Z_670_2_1  1
 UP BND1      Z_670_2_2  1
 UP BND1      Z_670_2_3  1
 UP BND1      Z_670_2_4  1
 UP BND1      Z_670_3_0  1
 UP BND1      Z_670_3_1  1
 UP BND1      Z_670_3_2  1
 UP BND1      Z_670_3_3  1
 UP BND1      Z_670_3_4  1
 UP BND1      Z_670_4_0  1
 UP BND1      Z_670_4_1  1
 UP BND1      Z_670_4_2  1
 UP BND1      Z_670_4_3  1
 UP BND1      Z_670_4_4  1
 UP BND1      Z_670_0_0  1
 UP BND1      Z_670_0_1  1
 UP BND1      Z_670_0_2  1
 UP BND1      Z_670_0_3  1
 UP BND1      Z_670_0_4  1
 UP BND1      Z_670_1_0  1
 UP BND1      Z_670_1_1  1
 UP BND1      Z_670_1_2  1
 UP BND1      Z_670_1_3  1
 UP BND1      Z_670_1_4  1
 UP BND1      Z_601_0_0  1
 UP BND1      Z_601_0_1  1
 UP BND1      Z_601_0_2  1
 UP BND1      Z_601_0_3  1
 UP BND1      Z_601_0_4  1
 UP BND1      Z_562_0_0  1
 UP BND1      Z_562_0_1  1
 UP BND1      Z_562_0_2  1
 UP BND1      Z_562_0_3  1
 UP BND1      Z_562_0_4  1
 UP BND1      Z_390_0_0  1
 UP BND1      Z_390_0_1  1
 UP BND1      Z_390_0_2  1
 UP BND1      Z_390_0_3  1
 UP BND1      Z_390_0_4  1
 UP BND1      Z_311_0_0  1
 UP BND1      Z_311_0_1  1
 UP BND1      Z_311_0_2  1
 UP BND1      Z_311_0_3  1
 UP BND1      Z_311_0_4  1
 UP BND1      Z_311_1_0  1
 UP BND1      Z_311_1_1  1
 UP BND1      Z_311_1_2  1
 UP BND1      Z_311_1_3  1
 UP BND1      Z_311_1_4  1
 UP BND1      Z_311_4_0  1
 UP BND1      Z_311_4_1  1
 UP BND1      Z_311_4_2  1
 UP BND1      Z_311_4_3  1
 UP BND1      Z_311_4_4  1
 UP BND1      Z_311_3_0  1
 UP BND1      Z_311_3_1  1
 UP BND1      Z_311_3_2  1
 UP BND1      Z_311_3_3  1
 UP BND1      Z_311_3_4  1
 UP BND1      Z_311_2_0  1
 UP BND1      Z_311_2_1  1
 UP BND1      Z_311_2_2  1
 UP BND1      Z_311_2_3  1
 UP BND1      Z_311_2_4  1
 UP BND1      Z_307_0_0  1
 UP BND1      Z_307_0_1  1
 UP BND1      Z_307_0_2  1
 UP BND1      Z_307_0_3  1
 UP BND1      Z_307_0_4  1
 UP BND1      Z_155_0_0  1
 UP BND1      Z_155_0_1  1
 UP BND1      Z_155_0_2  1
 UP BND1      Z_155_0_3  1
 UP BND1      Z_155_0_4  1
ENDATA
